self-compositions/words_1/words_377_SAT.qaiger
aag 63 24 0 1 39
18
10
6
32
42
44
38
20
12
14
30
4
8
16
2
46
22
28
26
40
48
24
34
36
126
50 33 17
52 51 48
54 50 49
56 55 53
58 33 15
60 58 47
62 27 9
64 62 41
66 25 7
68 66 39
70 67 38
72 23 5
74 73 36
76 72 37
78 34 3
80 78 21
82 80 77
84 83 75
86 84 71
88 87 69
90 88 65
92 63 40
94 29 11
96 95 42
98 97 93
100 98 91
102 94 43
104 31 13
106 104 45
108 107 103
110 108 101
112 59 46
114 105 44
116 115 113
118 116 111
120 119 61
122 120 56
124 121 57
126 125 123
i0 1 x[0]
i1 2 z[4]
i2 2 z[2]
i3 1 x[7]
i4 2 y[4]
i5 2 y[5]
i6 2 y[2]
i7 1 x[1]
i8 2 z[5]
i9 2 z[6]
i10 1 x[6]
i11 2 z[1]
i12 2 z[3]
i13 2 z[7]
i14 2 z[0]
i15 2 y[6]
i16 1 x[2]
i17 1 x[5]
i18 1 x[4]
i19 2 y[3]
i20 2 y[7]
i21 1 x[3]
i22 2 y[0]
i23 2 y[1]
o0 bv[0]
c
simplified
  <
    xor
      or
        2 z
        >> 1
          1 x
      1
    unary minus
      2 y
