self-compositions/words_1/words_377_SAT.qaiger.qdimacs
p cnf 63 118
a 9 10 11 12 13 14 15 16 0
e 1 2 3 4 5 6 7 8 17 18 19 20 21 22 23 24 25 26 27 28 29 30 31 32 33 34 35 36 37 38 39 40 41 42 43 44 45 46 47 48 49 50 51 52 53 54 55 56 57 58 59 60 61 62 63 0
16 8 25 0
-16 -25 0
-8 -25 0
25 -24 26 0
-25 -26 0
24 -26 0
-25 24 27 0
25 -27 0
-24 -27 0
27 26 28 0
-27 -28 0
-26 -28 0
16 7 29 0
-16 -29 0
-7 -29 0
-29 23 30 0
29 -30 0
-23 -30 0
13 4 31 0
-13 -31 0
-4 -31 0
-31 20 32 0
31 -32 0
-20 -32 0
12 3 33 0
-12 -33 0
-3 -33 0
-33 19 34 0
33 -34 0
-19 -34 0
33 -19 35 0
-33 -35 0
19 -35 0
11 2 36 0
-11 -36 0
-2 -36 0
36 -18 37 0
-36 -37 0
18 -37 0
-36 18 38 0
36 -38 0
-18 -38 0
-17 1 39 0
17 -39 0
-1 -39 0
-39 10 40 0
39 -40 0
-10 -40 0
-40 38 41 0
40 -41 0
-38 -41 0
41 37 42 0
-41 -42 0
-37 -42 0
-42 35 43 0
42 -43 0
-35 -43 0
43 34 44 0
-43 -44 0
-34 -44 0
-44 32 45 0
44 -45 0
-32 -45 0
31 -20 46 0
-31 -46 0
20 -46 0
14 5 47 0
-14 -47 0
-5 -47 0
47 -21 48 0
-47 -48 0
21 -48 0
48 46 49 0
-48 -49 0
-46 -49 0
-49 45 50 0
49 -50 0
-45 -50 0
-47 21 51 0
47 -51 0
-21 -51 0
15 6 52 0
-15 -52 0
-6 -52 0
-52 22 53 0
52 -53 0
-22 -53 0
53 51 54 0
-53 -54 0
-51 -54 0
-54 50 55 0
54 -55 0
-50 -55 0
29 -23 56 0
-29 -56 0
23 -56 0
52 -22 57 0
-52 -57 0
22 -57 0
57 56 58 0
-57 -58 0
-56 -58 0
-58 55 59 0
58 -59 0
-55 -59 0
59 30 60 0
-59 -60 0
-30 -60 0
-60 -28 61 0
60 -61 0
28 -61 0
60 28 62 0
-60 -62 0
-28 -62 0
62 61 63 0
-62 -63 0
-61 -63 0
63 0
